Default gamma
158
Reciprocal
0.0 0.0 0.0 1 \Gamma
0.0 0.0474378470129 0.0 1 
0.0 0.0948756940258 0.0 1 
0.0 0.142313541039 0.0 1 
0.0 0.189751388052 0.0 1 
0.0 0.237189235064 0.0 1 
0.0 0.284627082077 0.0 1 
0.0 0.33206492909 0.0 1 
0.0 0.379502776103 0.0 1 
0.0 0.426940623116 0.0 1 
0.0 0.474378470129 0.0 1 
0.0 0.521816317142 0.0 1 
0.0 0.569254164155 0.0 1 
0.0 0.616692011167 0.0 1 
0.0 0.66412985818 0.0 1 
0.0 0.711567705193 0.0 1 
0.0 0.759005552206 0.0 1 
0.0 0.806443399219 0.0 1 
0.0 0.853881246232 0.0 1 X
0.0 0.853881246232 0.0 1 X
0.0474378470129 0.853881246232 0.0 1 
0.0948756940258 0.853881246232 0.0 1 
0.142313541039 0.853881246232 0.0 1 
0.189751388052 0.853881246232 0.0 1 
0.237189235064 0.853881246232 0.0 1 
0.284627082077 0.853881246232 0.0 1 
0.33206492909 0.853881246232 0.0 1 
0.379502776103 0.853881246232 0.0 1 
0.426940623116 0.853881246232 0.0 1 
0.474378470129 0.853881246232 0.0 1 
0.521816317142 0.853881246232 0.0 1 
0.569254164155 0.853881246232 0.0 1 
0.616692011167 0.853881246232 0.0 1 
0.66412985818 0.853881246232 0.0 1 
0.711567705193 0.853881246232 0.0 1 
0.759005552206 0.853881246232 0.0 1 
0.806443399219 0.853881246232 0.0 1 
0.853881246232 0.853881246232 0.0 1 M
0.853881246232 0.853881246232 0.0 1 M
0.819725996383 0.819725996383 0.0 1 
0.785570746533 0.785570746533 0.0 1 
0.751415496684 0.751415496684 0.0 1 
0.717260246835 0.717260246835 0.0 1 
0.683104996985 0.683104996985 0.0 1 
0.648949747136 0.648949747136 0.0 1 
0.614794497287 0.614794497287 0.0 1 
0.580639247438 0.580639247438 0.0 1 
0.546483997588 0.546483997588 0.0 1 
0.512328747739 0.512328747739 0.0 1 
0.47817349789 0.47817349789 0.0 1 
0.444018248041 0.444018248041 0.0 1 
0.409862998191 0.409862998191 0.0 1 
0.375707748342 0.375707748342 0.0 1 
0.341552498493 0.341552498493 0.0 1 
0.307397248643 0.307397248643 0.0 1 
0.273241998794 0.273241998794 0.0 1 
0.239086748945 0.239086748945 0.0 1 
0.204931499096 0.204931499096 0.0 1 
0.170776249246 0.170776249246 0.0 1 
0.136620999397 0.136620999397 0.0 1 
0.102465749548 0.102465749548 0.0 1 
0.0683104996985 0.0683104996985 0.0 1 
0.0341552498493 0.0341552498493 0.0 1 
0.0 0.0 0.0 1 \Gamma
0.0 0.0 0.0 1 \Gamma
-2.76640988108e-18 -2.76640988108e-18 0.045178901917 1 
-5.53281976217e-18 -5.53281976217e-18 0.0903578038341 1 
-8.29922964325e-18 -8.29922964325e-18 0.135536705751 1 
-1.10656395243e-17 -1.10656395243e-17 0.180715607668 1 
-1.38320494054e-17 -1.38320494054e-17 0.225894509585 1 
-1.65984592865e-17 -1.65984592865e-17 0.271073411502 1 
-1.93648691676e-17 -1.93648691676e-17 0.316252313419 1 
-2.21312790487e-17 -2.21312790487e-17 0.361431215336 1 
-2.48976889298e-17 -2.48976889298e-17 0.406610117253 1 Z
-2.48976889298e-17 -2.48976889298e-17 0.406610117253 1 Z
-2.48976889298e-17 0.0474378470129 0.406610117253 1 
-2.48976889298e-17 0.0948756940258 0.406610117253 1 
-2.48976889298e-17 0.142313541039 0.406610117253 1 
-2.48976889298e-17 0.189751388052 0.406610117253 1 
-2.48976889298e-17 0.237189235064 0.406610117253 1 
-2.48976889298e-17 0.284627082077 0.406610117253 1 
-2.48976889298e-17 0.33206492909 0.406610117253 1 
-2.48976889298e-17 0.379502776103 0.406610117253 1 
-2.48976889298e-17 0.426940623116 0.406610117253 1 
-2.48976889298e-17 0.474378470129 0.406610117253 1 
-2.48976889298e-17 0.521816317142 0.406610117253 1 
-2.48976889298e-17 0.569254164155 0.406610117253 1 
-2.48976889298e-17 0.616692011167 0.406610117253 1 
-2.48976889298e-17 0.66412985818 0.406610117253 1 
-2.48976889298e-17 0.711567705193 0.406610117253 1 
-2.48976889298e-17 0.759005552206 0.406610117253 1 
-2.48976889298e-17 0.806443399219 0.406610117253 1 
-2.48976889298e-17 0.853881246232 0.406610117253 1 R
-2.48976889298e-17 0.853881246232 0.406610117253 1 R
0.0474378470129 0.853881246232 0.406610117253 1 
0.0948756940258 0.853881246232 0.406610117253 1 
0.142313541039 0.853881246232 0.406610117253 1 
0.189751388052 0.853881246232 0.406610117253 1 
0.237189235064 0.853881246232 0.406610117253 1 
0.284627082077 0.853881246232 0.406610117253 1 
0.33206492909 0.853881246232 0.406610117253 1 
0.379502776103 0.853881246232 0.406610117253 1 
0.426940623116 0.853881246232 0.406610117253 1 
0.474378470129 0.853881246232 0.406610117253 1 
0.521816317142 0.853881246232 0.406610117253 1 
0.569254164155 0.853881246232 0.406610117253 1 
0.616692011167 0.853881246232 0.406610117253 1 
0.66412985818 0.853881246232 0.406610117253 1 
0.711567705193 0.853881246232 0.406610117253 1 
0.759005552206 0.853881246232 0.406610117253 1 
0.806443399219 0.853881246232 0.406610117253 1 
0.853881246232 0.853881246232 0.406610117253 1 A
0.853881246232 0.853881246232 0.406610117253 1 A
0.819725996383 0.819725996383 0.406610117253 1 
0.785570746533 0.785570746533 0.406610117253 1 
0.751415496684 0.751415496684 0.406610117253 1 
0.717260246835 0.717260246835 0.406610117253 1 
0.683104996985 0.683104996985 0.406610117253 1 
0.648949747136 0.648949747136 0.406610117253 1 
0.614794497287 0.614794497287 0.406610117253 1 
0.580639247438 0.580639247438 0.406610117253 1 
0.546483997588 0.546483997588 0.406610117253 1 
0.512328747739 0.512328747739 0.406610117253 1 
0.47817349789 0.47817349789 0.406610117253 1 
0.444018248041 0.444018248041 0.406610117253 1 
0.409862998191 0.409862998191 0.406610117253 1 
0.375707748342 0.375707748342 0.406610117253 1 
0.341552498493 0.341552498493 0.406610117253 1 
0.307397248643 0.307397248643 0.406610117253 1 
0.273241998794 0.273241998794 0.406610117253 1 
0.239086748945 0.239086748945 0.406610117253 1 
0.204931499096 0.204931499096 0.406610117253 1 
0.170776249246 0.170776249246 0.406610117253 1 
0.136620999397 0.136620999397 0.406610117253 1 
0.102465749548 0.102465749548 0.406610117253 1 
0.0683104996985 0.0683104996985 0.406610117253 1 
0.0341552498493 0.0341552498493 0.406610117253 1 
0.0 0.0 0.406610117253 1 Z
0.0 0.853881246232 0.0 1 X
-2.76640988108e-18 0.853881246232 0.045178901917 1 
-5.53281976217e-18 0.853881246232 0.0903578038341 1 
-8.29922964325e-18 0.853881246232 0.135536705751 1 
-1.10656395243e-17 0.853881246232 0.180715607668 1 
-1.38320494054e-17 0.853881246232 0.225894509585 1 
-1.65984592865e-17 0.853881246232 0.271073411502 1 
-1.93648691676e-17 0.853881246232 0.316252313419 1 
-2.21312790487e-17 0.853881246232 0.361431215336 1 
-2.48976889298e-17 0.853881246232 0.406610117253 1 R
0.853881246232 0.853881246232 0.0 1 M
0.853881246232 0.853881246232 0.045178901917 1 
0.853881246232 0.853881246232 0.0903578038341 1 
0.853881246232 0.853881246232 0.135536705751 1 
0.853881246232 0.853881246232 0.180715607668 1 
0.853881246232 0.853881246232 0.225894509585 1 
0.853881246232 0.853881246232 0.271073411502 1 
0.853881246232 0.853881246232 0.316252313419 1 
0.853881246232 0.853881246232 0.361431215336 1 
0.853881246232 0.853881246232 0.406610117253 1 A
