Al100
1.0
13.900000 0.000000 0.000000
0.000000 13.900000 0.000000
0.000000 0.000000 11.120000
Al
100
direct
0.993756 0.001964 0.003733 Al
0.001763 0.999278 0.241328 Al
0.999741 0.006430 0.495979 Al
0.005137 0.000445 0.743729 Al
0.003464 0.199554 0.007862 Al
0.003676 0.197528 0.242914 Al
0.999988 0.205271 0.506121 Al
0.996853 0.204835 0.744628 Al
0.000405 0.392829 0.000518 Al
0.000853 0.400835 0.241132 Al
0.994105 0.396331 0.497648 Al
0.003088 0.395172 0.744564 Al
0.001152 0.596766 0.007903 Al
0.002219 0.594021 0.254161 Al
0.001189 0.605979 0.504775 Al
0.999742 0.595238 0.756733 Al
0.006898 0.800704 0.002397 Al
0.004100 0.801179 0.257241 Al
0.001649 0.800186 0.508750 Al
0.001725 0.801769 0.758446 Al
0.203355 0.002243 0.992555 Al
0.203729 0.996689 0.243518 Al
0.206655 0.999753 0.503403 Al
0.198139 0.997209 0.742044 Al
0.196341 0.202159 0.992743 Al
0.199838 0.193833 0.245374 Al
0.195278 0.194907 0.497654 Al
0.207187 0.199805 0.750313 Al
0.193094 0.400352 0.997519 Al
0.206182 0.397367 0.253213 Al
0.194560 0.399333 0.494175 Al
0.205388 0.400107 0.755957 Al
0.199184 0.603157 0.991984 Al
0.194125 0.596279 0.252301 Al
0.201526 0.606640 0.497110 Al
0.199454 0.593192 0.747173 Al
0.199675 0.795172 0.993345 Al
0.193044 0.800962 0.248044 Al
0.197601 0.806310 0.503110 Al
0.206695 0.802174 0.751860 Al
0.397396 0.005791 0.995771 Al
0.397080 0.993989 0.253332 Al
0.403079 0.994047 0.503269 Al
0.403522 0.003062 0.756843 Al
0.399788 0.200602 0.008957 Al
0.404772 0.197228 0.255770 Al
0.400765 0.205906 0.494954 Al
0.402103 0.205865 0.754496 Al
0.405647 0.396319 0.996858 Al
0.405623 0.397597 0.254738 Al
0.392989 0.399762 0.501995 Al
0.399308 0.392977 0.748251 Al
0.402767 0.595070 0.994439 Al
0.401894 0.593198 0.251725 Al
0.401040 0.593813 0.495598 Al
0.396208 0.605301 0.753807 Al
0.407129 0.799180 0.000639 Al
0.393732 0.796735 0.251684 Al
0.404297 0.805632 0.501564 Al
0.403075 0.801377 0.742055 Al
0.597590 0.002179 0.991976 Al
0.593355 0.998828 0.253119 Al
0.598370 0.006975 0.499164 Al
0.602764 0.993377 0.750620 Al
0.600559 0.207170 0.000239 Al
0.597769 0.206551 0.252457 Al
0.594762 0.195535 0.497381 Al
0.594814 0.195798 0.746644 Al
0.597939 0.396740 0.007592 Al
0.596560 0.394192 0.246888 Al
0.604005 0.396614 0.506156 Al
0.597424 0.393293 0.750456 Al
0.595862 0.604658 0.995504 Al
0.605412 0.599180 0.255836 Al
0.607133 0.599551 0.498972 Al
0.596683 0.600034 0.757980 Al
0.599751 0.807179 0.999515 Al
0.598297 0.805227 0.244199 Al
0.600956 0.794156 0.494893 Al
0.604982 0.804858 0.747720 Al
0.793373 0.000522 0.996562 Al
0.801325 0.998889 0.241271 Al
0.797616 0.005386 0.494836 Al
0.801673 0.002284 0.741733 Al
0.793234 0.198480 0.997605 Al
0.796480 0.206246 0.250747 Al
0.804036 0.199745 0.492563 Al
0.794947 0.204674 0.752616 Al
0.804189 0.405260 0.003199 Al
0.799193 0.398700 0.258787 Al
0.793212 0.399609 0.502939 Al
0.802634 0.402254 0.757880 Al
0.803541 0.596896 0.006798 Al
0.802657 0.596197 0.243127 Al
0.796420 0.599732 0.492207 Al
0.806624 0.597584 0.748215 Al
0.792924 0.799680 0.998426 Al
0.803809 0.800871 0.257551 Al
0.800498 0.803620 0.492253 Al
0.805959 0.802854 0.753559 Al
