mc
12.5
1.00 0 0
0 1.00 0
0 0 1.00
Cr C Fe
2 1 0
Direct
0.1 0.1 0.0
0.1 0.9 0.0
0.1 0.0 0.0
