Fe3Si
   3.67919153565382
     1.0    0.0000000000000000    0.0000000000000000
     0.0000000000000001    1.0    0.0000000000000000
     0.0000000000000001    0.0000000000000001    2.1
   Fe   Ga
     1     1
Direct
  0.0000000000000000  0.0000000000000000  0.0000000000000000
  0.5000000000000000  0.5000000000000000  0.5000000000000000

  0.00000000E+00  0.00000000E+00  0.00000000E+00
  0.00000000E+00  0.00000000E+00  0.00000000E+00
