Al100
1.0
13.900000 0.000000 0.000000
0.000000 13.900000 0.000000
0.000000 0.000000 11.120000
Al
100
direct
0.997380 0.993860 0.003353 Al
0.001595 0.996287 0.242560 Al
0.997738 0.994448 0.495028 Al
0.005654 0.996143 0.752772 Al
0.005968 0.196096 0.998819 Al
0.003985 0.194438 0.252780 Al
0.994790 0.196830 0.495230 Al
0.999340 0.197870 0.758550 Al
0.002271 0.395053 0.994120 Al
0.005368 0.395488 0.252007 Al
0.995659 0.397760 0.506602 Al
0.006582 0.399897 0.746371 Al
0.998324 0.605393 0.994428 Al
0.004138 0.596283 0.244297 Al
0.005512 0.595437 0.499067 Al
0.998574 0.598523 0.741381 Al
0.004236 0.798515 0.992973 Al
0.005643 0.795894 0.252183 Al
0.004657 0.802002 0.506381 Al
0.006233 0.802657 0.746977 Al
0.202714 0.005163 0.994736 Al
0.203987 0.005140 0.246158 Al
0.193156 0.998059 0.501339 Al
0.197886 0.995621 0.756627 Al
0.193026 0.201669 0.999278 Al
0.200559 0.193146 0.252641 Al
0.204399 0.205547 0.498402 Al
0.205876 0.201765 0.745304 Al
0.205065 0.403065 0.005109 Al
0.204627 0.402231 0.256297 Al
0.198167 0.396378 0.507425 Al
0.199973 0.397047 0.741800 Al
0.201653 0.605354 0.994361 Al
0.199650 0.594532 0.244172 Al
0.195117 0.597505 0.494179 Al
0.206644 0.602651 0.749042 Al
0.194337 0.804433 0.000248 Al
0.201284 0.793115 0.247947 Al
0.203851 0.805923 0.501698 Al
0.206933 0.798324 0.748831 Al
0.394223 0.995717 0.999766 Al
0.399459 0.007080 0.248552 Al
0.400133 0.005381 0.505966 Al
0.396064 0.005783 0.752102 Al
0.404803 0.201679 0.006358 Al
0.400724 0.192972 0.248305 Al
0.406954 0.198160 0.499863 Al
0.398007 0.204667 0.756374 Al
0.403010 0.405303 0.004772 Al
0.402274 0.406471 0.252714 Al
0.398737 0.406774 0.497415 Al
0.406165 0.400048 0.754634 Al
0.394403 0.598980 0.005504 Al
0.394342 0.595999 0.252414 Al
0.400524 0.597556 0.491567 Al
0.398307 0.593224 0.747843 Al
0.406379 0.797374 0.002553 Al
0.403994 0.805912 0.251154 Al
0.404599 0.805277 0.502073 Al
0.397659 0.793529 0.747376 Al
0.596611 0.998359 0.992337 Al
0.598222 0.998915 0.241392 Al
0.606771 0.999523 0.497020 Al
0.595696 0.001035 0.757089 Al
0.602286 0.198597 0.991656 Al
0.600224 0.204255 0.242754 Al
0.595924 0.199765 0.492595 Al
0.603536 0.205123 0.745492 Al
0.600954 0.397723 0.991553 Al
0.602368 0.405939 0.254123 Al
0.594112 0.403324 0.503072 Al
0.603553 0.397148 0.756960 Al
0.605839 0.603204 0.996599 Al
0.605443 0.600776 0.255801 Al
0.600648 0.599735 0.491050 Al
0.594444 0.601996 0.744860 Al
0.599653 0.792852 0.999079 Al
0.599952 0.793372 0.246503 Al
0.598890 0.806835 0.497560 Al
0.602189 0.806318 0.746682 Al
0.800265 0.006748 0.003100 Al
0.797458 0.004718 0.256000 Al
0.804985 0.002688 0.505546 Al
0.806708 0.000848 0.753073 Al
0.793060 0.201882 0.000282 Al
0.803794 0.196678 0.256414 Al
0.799977 0.192948 0.498223 Al
0.796505 0.197529 0.742772 Al
0.798684 0.396854 0.992082 Al
0.798647 0.401973 0.258481 Al
0.802780 0.404671 0.505892 Al
0.804818 0.400276 0.743330 Al
0.795595 0.605326 0.002495 Al
0.794330 0.603836 0.247236 Al
0.795459 0.596041 0.504915 Al
0.801717 0.606683 0.747457 Al
0.793838 0.798572 0.995717 Al
0.803134 0.797105 0.242759 Al
0.800165 0.806775 0.503019 Al
0.793635 0.803121 0.751535 Al
